p cnf 496 1773
c p weight -47 1 0
c p weight 47 -1 0
c p weight 51 6.12323399573676603586882014729198302312846062338790031898128063403419218957424163818359375E-17 0
c p weight -51 1 0
c p weight 52 1 0
c p weight -52 1 0
c p weight -49 1 0
c p weight 49 -1 0
c p weight -53 1 0
c p weight 53 -1 0
c p weight -55 1 0
c p weight 55 -1 0
c p weight -56 1 0
c p weight 56 -1 0
c p weight 60 6.12323399573676603586882014729198302312846062338790031898128063403419218957424163818359375E-17 0
c p weight -60 1 0
c p weight 61 1 0
c p weight -61 1 0
c p weight -58 1 0
c p weight 58 -1 0
c p weight -62 1 0
c p weight 62 -1 0
c p weight -64 1 0
c p weight 64 -1 0
c p weight -65 1 0
c p weight 65 -1 0
c p weight 69 6.12323399573676603586882014729198302312846062338790031898128063403419218957424163818359375E-17 0
c p weight -69 1 0
c p weight 70 1 0
c p weight -70 1 0
c p weight -67 1 0
c p weight 67 -1 0
c p weight -71 1 0
c p weight 71 -1 0
c p weight -73 1 0
c p weight 73 -1 0
c p weight 77 6.12323399573676603586882014729198302312846062338790031898128063403419218957424163818359375E-17 0
c p weight -77 1 0
c p weight 78 1 0
c p weight -78 1 0
c p weight -75 1 0
c p weight 75 -1 0
c p weight -79 1 0
c p weight 79 -1 0
c p weight -81 1 0
c p weight 81 -1 0
c p weight -82 1 0
c p weight 82 -1 0
c p weight 86 6.12323399573676603586882014729198302312846062338790031898128063403419218957424163818359375E-17 0
c p weight -86 1 0
c p weight 87 1 0
c p weight -87 1 0
c p weight -84 1 0
c p weight 84 -1 0
c p weight -88 1 0
c p weight 88 -1 0
c p weight -90 1 0
c p weight 90 -1 0
c p weight 94 6.12323399573676603586882014729198302312846062338790031898128063403419218957424163818359375E-17 0
c p weight -94 1 0
c p weight 95 1 0
c p weight -95 1 0
c p weight -92 1 0
c p weight 92 -1 0
c p weight -96 1 0
c p weight 96 -1 0
c p weight -98 1 0
c p weight 98 -1 0
c p weight -99 1 0
c p weight 99 -1 0
c p weight 103 6.12323399573676603586882014729198302312846062338790031898128063403419218957424163818359375E-17 0
c p weight -103 1 0
c p weight 104 1 0
c p weight -104 1 0
c p weight -101 1 0
c p weight 101 -1 0
c p weight -105 1 0
c p weight 105 -1 0
c p weight -107 1 0
c p weight 107 -1 0
c p weight -108 1 0
c p weight 108 -1 0
c p weight 112 6.12323399573676603586882014729198302312846062338790031898128063403419218957424163818359375E-17 0
c p weight -112 1 0
c p weight 113 1 0
c p weight -113 1 0
c p weight -110 1 0
c p weight 110 -1 0
c p weight -114 1 0
c p weight 114 -1 0
c p weight -116 1 0
c p weight 116 -1 0
c p weight 120 6.12323399573676603586882014729198302312846062338790031898128063403419218957424163818359375E-17 0
c p weight -120 1 0
c p weight 121 1 0
c p weight -121 1 0
c p weight -118 1 0
c p weight 118 -1 0
c p weight -122 1 0
c p weight 122 -1 0
c p weight -124 1 0
c p weight 124 -1 0
c p weight -125 1 0
c p weight 125 -1 0
c p weight 129 6.12323399573676603586882014729198302312846062338790031898128063403419218957424163818359375E-17 0
c p weight -129 1 0
c p weight 130 1 0
c p weight -130 1 0
c p weight -127 1 0
c p weight 127 -1 0
c p weight -131 1 0
c p weight 131 -1 0
c p weight -133 1 0
c p weight 133 -1 0
c p weight -134 1 0
c p weight 134 -1 0
c p weight 138 6.12323399573676603586882014729198302312846062338790031898128063403419218957424163818359375E-17 0
c p weight -138 1 0
c p weight 139 1 0
c p weight -139 1 0
c p weight -136 1 0
c p weight 136 -1 0
c p weight -140 1 0
c p weight 140 -1 0
c p weight -142 1 0
c p weight 142 -1 0
c p weight 146 6.12323399573676603586882014729198302312846062338790031898128063403419218957424163818359375E-17 0
c p weight -146 1 0
c p weight 147 1 0
c p weight -147 1 0
c p weight -144 1 0
c p weight 144 -1 0
c p weight -148 1 0
c p weight 148 -1 0
c p weight -150 1 0
c p weight 150 -1 0
c p weight -151 1 0
c p weight 151 -1 0
c p weight 155 6.12323399573676603586882014729198302312846062338790031898128063403419218957424163818359375E-17 0
c p weight -155 1 0
c p weight 156 1 0
c p weight -156 1 0
c p weight -153 1 0
c p weight 153 -1 0
c p weight -157 1 0
c p weight 157 -1 0
c p weight -159 1 0
c p weight 159 -1 0
c p weight -160 1 0
c p weight 160 -1 0
c p weight 164 6.12323399573676603586882014729198302312846062338790031898128063403419218957424163818359375E-17 0
c p weight -164 1 0
c p weight 165 1 0
c p weight -165 1 0
c p weight -162 1 0
c p weight 162 -1 0
c p weight -166 1 0
c p weight 166 -1 0
c p weight -168 1 0
c p weight 168 -1 0
c p weight 172 6.12323399573676603586882014729198302312846062338790031898128063403419218957424163818359375E-17 0
c p weight -172 1 0
c p weight 173 1 0
c p weight -173 1 0
c p weight -170 1 0
c p weight 170 -1 0
c p weight -174 1 0
c p weight 174 -1 0
c p weight -176 1 0
c p weight 176 -1 0
c p weight 180 6.12323399573676603586882014729198302312846062338790031898128063403419218957424163818359375E-17 0
c p weight -180 1 0
c p weight 181 1 0
c p weight -181 1 0
c p weight -178 1 0
c p weight 178 -1 0
c p weight -182 1 0
c p weight 182 -1 0
c p weight -184 1 0
c p weight 184 -1 0
c p weight -185 1 0
c p weight 185 -1 0
c p weight 189 6.12323399573676603586882014729198302312846062338790031898128063403419218957424163818359375E-17 0
c p weight -189 1 0
c p weight 190 1 0
c p weight -190 1 0
c p weight -187 1 0
c p weight 187 -1 0
c p weight -191 1 0
c p weight 191 -1 0
c p weight -193 1 0
c p weight 193 -1 0
c p weight 197 6.12323399573676603586882014729198302312846062338790031898128063403419218957424163818359375E-17 0
c p weight -197 1 0
c p weight 198 1 0
c p weight -198 1 0
c p weight -195 1 0
c p weight 195 -1 0
c p weight -199 1 0
c p weight 199 -1 0
c p weight -201 1 0
c p weight 201 -1 0
c p weight 205 6.12323399573676603586882014729198302312846062338790031898128063403419218957424163818359375E-17 0
c p weight -205 1 0
c p weight 206 1 0
c p weight -206 1 0
c p weight -203 1 0
c p weight 203 -1 0
c p weight -207 1 0
c p weight 207 -1 0
c p weight -209 1 0
c p weight 209 -1 0
c p weight 213 6.12323399573676603586882014729198302312846062338790031898128063403419218957424163818359375E-17 0
c p weight -213 1 0
c p weight 214 1 0
c p weight -214 1 0
c p weight -211 1 0
c p weight 211 -1 0
c p weight -215 1 0
c p weight 215 -1 0
c p weight -217 1 0
c p weight 217 -1 0
c p weight 221 6.12323399573676603586882014729198302312846062338790031898128063403419218957424163818359375E-17 0
c p weight -221 1 0
c p weight 222 1 0
c p weight -222 1 0
c p weight -219 1 0
c p weight 219 -1 0
c p weight -223 1 0
c p weight 223 -1 0
c p weight -225 1 0
c p weight 225 -1 0
c p weight 229 6.12323399573676603586882014729198302312846062338790031898128063403419218957424163818359375E-17 0
c p weight -229 1 0
c p weight 230 1 0
c p weight -230 1 0
c p weight -227 1 0
c p weight 227 -1 0
c p weight -231 1 0
c p weight 231 -1 0
c p weight -233 1 0
c p weight 233 -1 0
c p weight -234 1 0
c p weight 234 -1 0
c p weight -235 1 0
c p weight 235 -1 0
c p weight 239 6.12323399573676603586882014729198302312846062338790031898128063403419218957424163818359375E-17 0
c p weight -239 1 0
c p weight 240 1 0
c p weight -240 1 0
c p weight -237 1 0
c p weight 237 -1 0
c p weight -241 1 0
c p weight 241 -1 0
c p weight -243 1 0
c p weight 243 -1 0
c p weight -246 1 0
c p weight 246 -1 0
c p weight -247 1 0
c p weight 247 -1 0
c p weight 251 6.12323399573676603586882014729198302312846062338790031898128063403419218957424163818359375E-17 0
c p weight -251 1 0
c p weight 252 1 0
c p weight -252 1 0
c p weight -249 1 0
c p weight 249 -1 0
c p weight -253 1 0
c p weight 253 -1 0
c p weight -255 1 0
c p weight 255 -1 0
c p weight -258 1 0
c p weight 258 -1 0
c p weight -259 1 0
c p weight 259 -1 0
c p weight 263 6.12323399573676603586882014729198302312846062338790031898128063403419218957424163818359375E-17 0
c p weight -263 1 0
c p weight 264 1 0
c p weight -264 1 0
c p weight -261 1 0
c p weight 261 -1 0
c p weight -265 1 0
c p weight 265 -1 0
c p weight -267 1 0
c p weight 267 -1 0
c p weight -270 1 0
c p weight 270 -1 0
c p weight 274 6.12323399573676603586882014729198302312846062338790031898128063403419218957424163818359375E-17 0
c p weight -274 1 0
c p weight 275 1 0
c p weight -275 1 0
c p weight -272 1 0
c p weight 272 -1 0
c p weight -276 1 0
c p weight 276 -1 0
c p weight -278 1 0
c p weight 278 -1 0
c p weight -281 1 0
c p weight 281 -1 0
c p weight -282 1 0
c p weight 282 -1 0
c p weight 286 6.12323399573676603586882014729198302312846062338790031898128063403419218957424163818359375E-17 0
c p weight -286 1 0
c p weight 287 1 0
c p weight -287 1 0
c p weight -284 1 0
c p weight 284 -1 0
c p weight -288 1 0
c p weight 288 -1 0
c p weight -290 1 0
c p weight 290 -1 0
c p weight -293 1 0
c p weight 293 -1 0
c p weight 297 6.12323399573676603586882014729198302312846062338790031898128063403419218957424163818359375E-17 0
c p weight -297 1 0
c p weight 298 1 0
c p weight -298 1 0
c p weight -295 1 0
c p weight 295 -1 0
c p weight -299 1 0
c p weight 299 -1 0
c p weight -301 1 0
c p weight 301 -1 0
c p weight -304 1 0
c p weight 304 -1 0
c p weight -305 1 0
c p weight 305 -1 0
c p weight 309 6.12323399573676603586882014729198302312846062338790031898128063403419218957424163818359375E-17 0
c p weight -309 1 0
c p weight 310 1 0
c p weight -310 1 0
c p weight -307 1 0
c p weight 307 -1 0
c p weight -311 1 0
c p weight 311 -1 0
c p weight -313 1 0
c p weight 313 -1 0
c p weight -316 1 0
c p weight 316 -1 0
c p weight -317 1 0
c p weight 317 -1 0
c p weight 321 6.12323399573676603586882014729198302312846062338790031898128063403419218957424163818359375E-17 0
c p weight -321 1 0
c p weight 322 1 0
c p weight -322 1 0
c p weight -319 1 0
c p weight 319 -1 0
c p weight -323 1 0
c p weight 323 -1 0
c p weight -325 1 0
c p weight 325 -1 0
c p weight -328 1 0
c p weight 328 -1 0
c p weight 332 6.12323399573676603586882014729198302312846062338790031898128063403419218957424163818359375E-17 0
c p weight -332 1 0
c p weight 333 1 0
c p weight -333 1 0
c p weight -330 1 0
c p weight 330 -1 0
c p weight -334 1 0
c p weight 334 -1 0
c p weight -336 1 0
c p weight 336 -1 0
c p weight -339 1 0
c p weight 339 -1 0
c p weight -340 1 0
c p weight 340 -1 0
c p weight 344 6.12323399573676603586882014729198302312846062338790031898128063403419218957424163818359375E-17 0
c p weight -344 1 0
c p weight 345 1 0
c p weight -345 1 0
c p weight -342 1 0
c p weight 342 -1 0
c p weight -346 1 0
c p weight 346 -1 0
c p weight -348 1 0
c p weight 348 -1 0
c p weight -351 1 0
c p weight 351 -1 0
c p weight -352 1 0
c p weight 352 -1 0
c p weight 356 6.12323399573676603586882014729198302312846062338790031898128063403419218957424163818359375E-17 0
c p weight -356 1 0
c p weight 357 1 0
c p weight -357 1 0
c p weight -354 1 0
c p weight 354 -1 0
c p weight -358 1 0
c p weight 358 -1 0
c p weight -360 1 0
c p weight 360 -1 0
c p weight -363 1 0
c p weight 363 -1 0
c p weight 367 6.12323399573676603586882014729198302312846062338790031898128063403419218957424163818359375E-17 0
c p weight -367 1 0
c p weight 368 1 0
c p weight -368 1 0
c p weight -365 1 0
c p weight 365 -1 0
c p weight -369 1 0
c p weight 369 -1 0
c p weight -371 1 0
c p weight 371 -1 0
c p weight -374 1 0
c p weight 374 -1 0
c p weight -375 1 0
c p weight 375 -1 0
c p weight 379 6.12323399573676603586882014729198302312846062338790031898128063403419218957424163818359375E-17 0
c p weight -379 1 0
c p weight 380 1 0
c p weight -380 1 0
c p weight -377 1 0
c p weight 377 -1 0
c p weight -381 1 0
c p weight 381 -1 0
c p weight -383 1 0
c p weight 383 -1 0
c p weight -386 1 0
c p weight 386 -1 0
c p weight -387 1 0
c p weight 387 -1 0
c p weight 391 6.12323399573676603586882014729198302312846062338790031898128063403419218957424163818359375E-17 0
c p weight -391 1 0
c p weight 392 1 0
c p weight -392 1 0
c p weight -389 1 0
c p weight 389 -1 0
c p weight -393 1 0
c p weight 393 -1 0
c p weight -395 1 0
c p weight 395 -1 0
c p weight -398 1 0
c p weight 398 -1 0
c p weight 402 6.12323399573676603586882014729198302312846062338790031898128063403419218957424163818359375E-17 0
c p weight -402 1 0
c p weight 403 1 0
c p weight -403 1 0
c p weight -400 1 0
c p weight 400 -1 0
c p weight -404 1 0
c p weight 404 -1 0
c p weight -406 1 0
c p weight 406 -1 0
c p weight -409 1 0
c p weight 409 -1 0
c p weight 413 6.12323399573676603586882014729198302312846062338790031898128063403419218957424163818359375E-17 0
c p weight -413 1 0
c p weight 414 1 0
c p weight -414 1 0
c p weight -411 1 0
c p weight 411 -1 0
c p weight -415 1 0
c p weight 415 -1 0
c p weight -417 1 0
c p weight 417 -1 0
c p weight -420 1 0
c p weight 420 -1 0
c p weight -421 1 0
c p weight 421 -1 0
c p weight 425 6.12323399573676603586882014729198302312846062338790031898128063403419218957424163818359375E-17 0
c p weight -425 1 0
c p weight 426 1 0
c p weight -426 1 0
c p weight -423 1 0
c p weight 423 -1 0
c p weight -427 1 0
c p weight 427 -1 0
c p weight -429 1 0
c p weight 429 -1 0
c p weight -432 1 0
c p weight 432 -1 0
c p weight 436 6.12323399573676603586882014729198302312846062338790031898128063403419218957424163818359375E-17 0
c p weight -436 1 0
c p weight 437 1 0
c p weight -437 1 0
c p weight -434 1 0
c p weight 434 -1 0
c p weight -438 1 0
c p weight 438 -1 0
c p weight -440 1 0
c p weight 440 -1 0
c p weight -443 1 0
c p weight 443 -1 0
c p weight 447 6.12323399573676603586882014729198302312846062338790031898128063403419218957424163818359375E-17 0
c p weight -447 1 0
c p weight 448 1 0
c p weight -448 1 0
c p weight -445 1 0
c p weight 445 -1 0
c p weight -449 1 0
c p weight 449 -1 0
c p weight -451 1 0
c p weight 451 -1 0
c p weight -454 1 0
c p weight 454 -1 0
c p weight 458 6.12323399573676603586882014729198302312846062338790031898128063403419218957424163818359375E-17 0
c p weight -458 1 0
c p weight 459 1 0
c p weight -459 1 0
c p weight -456 1 0
c p weight 456 -1 0
c p weight -460 1 0
c p weight 460 -1 0
c p weight -462 1 0
c p weight 462 -1 0
c p weight -465 1 0
c p weight 465 -1 0
c p weight 469 6.12323399573676603586882014729198302312846062338790031898128063403419218957424163818359375E-17 0
c p weight -469 1 0
c p weight 470 1 0
c p weight -470 1 0
c p weight -467 1 0
c p weight 467 -1 0
c p weight -471 1 0
c p weight 471 -1 0
c p weight -473 1 0
c p weight 473 -1 0
c p weight -476 1 0
c p weight 476 -1 0
c p weight 480 6.12323399573676603586882014729198302312846062338790031898128063403419218957424163818359375E-17 0
c p weight -480 1 0
c p weight 481 1 0
c p weight -481 1 0
c p weight -478 1 0
c p weight 478 -1 0
c p weight -482 1 0
c p weight 482 -1 0
c p weight -484 1 0
c p weight 484 -1 0
c p weight -487 1 0
c p weight 487 -1 0
c p weight -488 1 0
c p weight 488 -1 0
c p weight 492 6.12323399573676603586882014729198302312846062338790031898128063403419218957424163818359375E-17 0
c p weight -492 1 0
c p weight 493 1 0
c p weight -493 1 0
c p weight -490 1 0
c p weight 490 -1 0
c p weight -494 1 0
c p weight 494 -1 0
c p weight 496 0.5 0
c p weight -496 1 0
496 0
-45 0
-43 0
-41 0
-39 0
-37 0
-35 0
-33 0
-31 0
-29 0
-27 0
-25 0
-23 0
-21 0
-19 0
-17 0
-15 0
-13 0
-11 0
-9 0
-7 0
-5 0
-3 0
-1 0
-47 1 0
-47 2 0
47 -1 -2 0
48 1 -2 0
48 -1 2 0
-48 1 2 0
-48 -1 -2 0
-49 50 0
-49 48 0
-49 -1 0
49 -50 1 -48 0
50 -1 48 0
-50 1 48 0
-51 48 0
50 -51 -1 0
-50 -51 1 0
50 51 1 -48 0
-50 51 -1 -48 0
-52 48 0
50 -52 1 0
-50 -52 -1 0
50 52 -1 -48 0
-50 52 1 -48 0
-53 50 0
-53 48 0
53 -50 -48 0
54 50 -48 0
54 -50 48 0
-54 50 48 0
-54 -50 -48 0
55 -54 0
-55 54 0
-56 3 0
-56 4 0
56 -3 -4 0
57 3 -4 0
57 -3 4 0
-57 3 4 0
-57 -3 -4 0
-58 59 0
-58 57 0
-58 -3 0
58 -59 3 -57 0
59 -3 57 0
-59 3 57 0
-60 57 0
59 -60 -3 0
-59 -60 3 0
59 60 3 -57 0
-59 60 -3 -57 0
-61 57 0
59 -61 3 0
-59 -61 -3 0
59 61 -3 -57 0
-59 61 3 -57 0
-62 59 0
-62 57 0
62 -59 -57 0
63 59 -57 0
63 -59 57 0
-63 59 57 0
-63 -59 -57 0
64 -63 0
-64 63 0
-65 5 0
-65 6 0
65 -5 -6 0
66 5 -6 0
66 -5 6 0
-66 5 6 0
-66 -5 -6 0
-67 68 0
-67 66 0
-67 -5 0
67 -68 5 -66 0
68 -5 66 0
-68 5 66 0
-69 66 0
68 -69 -5 0
-68 -69 5 0
68 69 5 -66 0
-68 69 -5 -66 0
-70 66 0
68 -70 5 0
-68 -70 -5 0
68 70 -5 -66 0
-68 70 5 -66 0
-71 68 0
-71 66 0
71 -68 -66 0
72 68 -66 0
72 -68 66 0
-72 68 66 0
-72 -68 -66 0
-73 7 0
-73 8 0
73 -7 -8 0
74 7 -8 0
74 -7 8 0
-74 7 8 0
-74 -7 -8 0
-75 76 0
-75 74 0
-75 -7 0
75 -76 7 -74 0
76 -7 74 0
-76 7 74 0
-77 74 0
76 -77 -7 0
-76 -77 7 0
76 77 7 -74 0
-76 77 -7 -74 0
-78 74 0
76 -78 7 0
-76 -78 -7 0
76 78 -7 -74 0
-76 78 7 -74 0
-79 76 0
-79 74 0
79 -76 -74 0
80 76 -74 0
80 -76 74 0
-80 76 74 0
-80 -76 -74 0
81 -80 0
-81 80 0
-82 9 0
-82 10 0
82 -9 -10 0
83 9 -10 0
83 -9 10 0
-83 9 10 0
-83 -9 -10 0
-84 85 0
-84 83 0
-84 -9 0
84 -85 9 -83 0
85 -9 83 0
-85 9 83 0
-86 83 0
85 -86 -9 0
-85 -86 9 0
85 86 9 -83 0
-85 86 -9 -83 0
-87 83 0
85 -87 9 0
-85 -87 -9 0
85 87 -9 -83 0
-85 87 9 -83 0
-88 85 0
-88 83 0
88 -85 -83 0
89 85 -83 0
89 -85 83 0
-89 85 83 0
-89 -85 -83 0
-90 11 0
-90 12 0
90 -11 -12 0
91 11 -12 0
91 -11 12 0
-91 11 12 0
-91 -11 -12 0
-92 93 0
-92 91 0
-92 -11 0
92 -93 11 -91 0
93 -11 91 0
-93 11 91 0
-94 91 0
93 -94 -11 0
-93 -94 11 0
93 94 11 -91 0
-93 94 -11 -91 0
-95 91 0
93 -95 11 0
-93 -95 -11 0
93 95 -11 -91 0
-93 95 11 -91 0
-96 93 0
-96 91 0
96 -93 -91 0
97 93 -91 0
97 -93 91 0
-97 93 91 0
-97 -93 -91 0
98 -97 0
-98 97 0
-99 13 0
-99 14 0
99 -13 -14 0
100 13 -14 0
100 -13 14 0
-100 13 14 0
-100 -13 -14 0
-101 102 0
-101 100 0
-101 -13 0
101 -102 13 -100 0
102 -13 100 0
-102 13 100 0
-103 100 0
102 -103 -13 0
-102 -103 13 0
102 103 13 -100 0
-102 103 -13 -100 0
-104 100 0
102 -104 13 0
-102 -104 -13 0
102 104 -13 -100 0
-102 104 13 -100 0
-105 102 0
-105 100 0
105 -102 -100 0
106 102 -100 0
106 -102 100 0
-106 102 100 0
-106 -102 -100 0
107 -106 0
-107 106 0
-108 15 0
-108 16 0
108 -15 -16 0
109 15 -16 0
109 -15 16 0
-109 15 16 0
-109 -15 -16 0
-110 111 0
-110 109 0
-110 -15 0
110 -111 15 -109 0
111 -15 109 0
-111 15 109 0
-112 109 0
111 -112 -15 0
-111 -112 15 0
111 112 15 -109 0
-111 112 -15 -109 0
-113 109 0
111 -113 15 0
-111 -113 -15 0
111 113 -15 -109 0
-111 113 15 -109 0
-114 111 0
-114 109 0
114 -111 -109 0
115 111 -109 0
115 -111 109 0
-115 111 109 0
-115 -111 -109 0
-116 17 0
-116 18 0
116 -17 -18 0
117 17 -18 0
117 -17 18 0
-117 17 18 0
-117 -17 -18 0
-118 119 0
-118 117 0
-118 -17 0
118 -119 17 -117 0
119 -17 117 0
-119 17 117 0
-120 117 0
119 -120 -17 0
-119 -120 17 0
119 120 17 -117 0
-119 120 -17 -117 0
-121 117 0
119 -121 17 0
-119 -121 -17 0
119 121 -17 -117 0
-119 121 17 -117 0
-122 119 0
-122 117 0
122 -119 -117 0
123 119 -117 0
123 -119 117 0
-123 119 117 0
-123 -119 -117 0
124 -123 0
-124 123 0
-125 19 0
-125 20 0
125 -19 -20 0
126 19 -20 0
126 -19 20 0
-126 19 20 0
-126 -19 -20 0
-127 128 0
-127 126 0
-127 -19 0
127 -128 19 -126 0
128 -19 126 0
-128 19 126 0
-129 126 0
128 -129 -19 0
-128 -129 19 0
128 129 19 -126 0
-128 129 -19 -126 0
-130 126 0
128 -130 19 0
-128 -130 -19 0
128 130 -19 -126 0
-128 130 19 -126 0
-131 128 0
-131 126 0
131 -128 -126 0
132 128 -126 0
132 -128 126 0
-132 128 126 0
-132 -128 -126 0
133 -132 0
-133 132 0
-134 21 0
-134 22 0
134 -21 -22 0
135 21 -22 0
135 -21 22 0
-135 21 22 0
-135 -21 -22 0
-136 137 0
-136 135 0
-136 -21 0
136 -137 21 -135 0
137 -21 135 0
-137 21 135 0
-138 135 0
137 -138 -21 0
-137 -138 21 0
137 138 21 -135 0
-137 138 -21 -135 0
-139 135 0
137 -139 21 0
-137 -139 -21 0
137 139 -21 -135 0
-137 139 21 -135 0
-140 137 0
-140 135 0
140 -137 -135 0
141 137 -135 0
141 -137 135 0
-141 137 135 0
-141 -137 -135 0
-142 23 0
-142 24 0
142 -23 -24 0
143 23 -24 0
143 -23 24 0
-143 23 24 0
-143 -23 -24 0
-144 145 0
-144 143 0
-144 -23 0
144 -145 23 -143 0
145 -23 143 0
-145 23 143 0
-146 143 0
145 -146 -23 0
-145 -146 23 0
145 146 23 -143 0
-145 146 -23 -143 0
-147 143 0
145 -147 23 0
-145 -147 -23 0
145 147 -23 -143 0
-145 147 23 -143 0
-148 145 0
-148 143 0
148 -145 -143 0
149 145 -143 0
149 -145 143 0
-149 145 143 0
-149 -145 -143 0
150 -149 0
-150 149 0
-151 25 0
-151 26 0
151 -25 -26 0
152 25 -26 0
152 -25 26 0
-152 25 26 0
-152 -25 -26 0
-153 154 0
-153 152 0
-153 -25 0
153 -154 25 -152 0
154 -25 152 0
-154 25 152 0
-155 152 0
154 -155 -25 0
-154 -155 25 0
154 155 25 -152 0
-154 155 -25 -152 0
-156 152 0
154 -156 25 0
-154 -156 -25 0
154 156 -25 -152 0
-154 156 25 -152 0
-157 154 0
-157 152 0
157 -154 -152 0
158 154 -152 0
158 -154 152 0
-158 154 152 0
-158 -154 -152 0
159 -158 0
-159 158 0
-160 27 0
-160 28 0
160 -27 -28 0
161 27 -28 0
161 -27 28 0
-161 27 28 0
-161 -27 -28 0
-162 163 0
-162 161 0
-162 -27 0
162 -163 27 -161 0
163 -27 161 0
-163 27 161 0
-164 161 0
163 -164 -27 0
-163 -164 27 0
163 164 27 -161 0
-163 164 -27 -161 0
-165 161 0
163 -165 27 0
-163 -165 -27 0
163 165 -27 -161 0
-163 165 27 -161 0
-166 163 0
-166 161 0
166 -163 -161 0
167 163 -161 0
167 -163 161 0
-167 163 161 0
-167 -163 -161 0
-168 29 0
-168 30 0
168 -29 -30 0
169 29 -30 0
169 -29 30 0
-169 29 30 0
-169 -29 -30 0
-170 171 0
-170 169 0
-170 -29 0
170 -171 29 -169 0
171 -29 169 0
-171 29 169 0
-172 169 0
171 -172 -29 0
-171 -172 29 0
171 172 29 -169 0
-171 172 -29 -169 0
-173 169 0
171 -173 29 0
-171 -173 -29 0
171 173 -29 -169 0
-171 173 29 -169 0
-174 171 0
-174 169 0
174 -171 -169 0
175 171 -169 0
175 -171 169 0
-175 171 169 0
-175 -171 -169 0
-176 31 0
-176 32 0
176 -31 -32 0
177 31 -32 0
177 -31 32 0
-177 31 32 0
-177 -31 -32 0
-178 179 0
-178 177 0
-178 -31 0
178 -179 31 -177 0
179 -31 177 0
-179 31 177 0
-180 177 0
179 -180 -31 0
-179 -180 31 0
179 180 31 -177 0
-179 180 -31 -177 0
-181 177 0
179 -181 31 0
-179 -181 -31 0
179 181 -31 -177 0
-179 181 31 -177 0
-182 179 0
-182 177 0
182 -179 -177 0
183 179 -177 0
183 -179 177 0
-183 179 177 0
-183 -179 -177 0
184 -183 0
-184 183 0
-185 33 0
-185 34 0
185 -33 -34 0
186 33 -34 0
186 -33 34 0
-186 33 34 0
-186 -33 -34 0
-187 188 0
-187 186 0
-187 -33 0
187 -188 33 -186 0
188 -33 186 0
-188 33 186 0
-189 186 0
188 -189 -33 0
-188 -189 33 0
188 189 33 -186 0
-188 189 -33 -186 0
-190 186 0
188 -190 33 0
-188 -190 -33 0
188 190 -33 -186 0
-188 190 33 -186 0
-191 188 0
-191 186 0
191 -188 -186 0
192 188 -186 0
192 -188 186 0
-192 188 186 0
-192 -188 -186 0
-193 35 0
-193 36 0
193 -35 -36 0
194 35 -36 0
194 -35 36 0
-194 35 36 0
-194 -35 -36 0
-195 196 0
-195 194 0
-195 -35 0
195 -196 35 -194 0
196 -35 194 0
-196 35 194 0
-197 194 0
196 -197 -35 0
-196 -197 35 0
196 197 35 -194 0
-196 197 -35 -194 0
-198 194 0
196 -198 35 0
-196 -198 -35 0
196 198 -35 -194 0
-196 198 35 -194 0
-199 196 0
-199 194 0
199 -196 -194 0
200 196 -194 0
200 -196 194 0
-200 196 194 0
-200 -196 -194 0
-201 37 0
-201 38 0
201 -37 -38 0
202 37 -38 0
202 -37 38 0
-202 37 38 0
-202 -37 -38 0
-203 204 0
-203 202 0
-203 -37 0
203 -204 37 -202 0
204 -37 202 0
-204 37 202 0
-205 202 0
204 -205 -37 0
-204 -205 37 0
204 205 37 -202 0
-204 205 -37 -202 0
-206 202 0
204 -206 37 0
-204 -206 -37 0
204 206 -37 -202 0
-204 206 37 -202 0
-207 204 0
-207 202 0
207 -204 -202 0
208 204 -202 0
208 -204 202 0
-208 204 202 0
-208 -204 -202 0
-209 39 0
-209 40 0
209 -39 -40 0
210 39 -40 0
210 -39 40 0
-210 39 40 0
-210 -39 -40 0
-211 212 0
-211 210 0
-211 -39 0
211 -212 39 -210 0
212 -39 210 0
-212 39 210 0
-213 210 0
212 -213 -39 0
-212 -213 39 0
212 213 39 -210 0
-212 213 -39 -210 0
-214 210 0
212 -214 39 0
-212 -214 -39 0
212 214 -39 -210 0
-212 214 39 -210 0
-215 212 0
-215 210 0
215 -212 -210 0
216 212 -210 0
216 -212 210 0
-216 212 210 0
-216 -212 -210 0
-217 41 0
-217 42 0
217 -41 -42 0
218 41 -42 0
218 -41 42 0
-218 41 42 0
-218 -41 -42 0
-219 220 0
-219 218 0
-219 -41 0
219 -220 41 -218 0
220 -41 218 0
-220 41 218 0
-221 218 0
220 -221 -41 0
-220 -221 41 0
220 221 41 -218 0
-220 221 -41 -218 0
-222 218 0
220 -222 41 0
-220 -222 -41 0
220 222 -41 -218 0
-220 222 41 -218 0
-223 220 0
-223 218 0
223 -220 -218 0
224 220 -218 0
224 -220 218 0
-224 220 218 0
-224 -220 -218 0
-225 43 0
-225 44 0
225 -43 -44 0
226 43 -44 0
226 -43 44 0
-226 43 44 0
-226 -43 -44 0
-227 228 0
-227 226 0
-227 -43 0
227 -228 43 -226 0
228 -43 226 0
-228 43 226 0
-229 226 0
228 -229 -43 0
-228 -229 43 0
228 229 43 -226 0
-228 229 -43 -226 0
-230 226 0
228 -230 43 0
-228 -230 -43 0
228 230 -43 -226 0
-228 230 43 -226 0
-231 228 0
-231 226 0
231 -228 -226 0
232 228 -226 0
232 -228 226 0
-232 228 226 0
-232 -228 -226 0
233 -232 0
-233 232 0
234 -46 0
-234 46 0
-235 45 0
-235 46 0
235 -45 -46 0
236 45 -46 0
236 -45 46 0
-236 45 46 0
-236 -45 -46 0
-237 238 0
-237 236 0
-237 -45 0
237 -238 45 -236 0
238 -45 236 0
-238 45 236 0
-239 236 0
238 -239 -45 0
-238 -239 45 0
238 239 45 -236 0
-238 239 -45 -236 0
-240 236 0
238 -240 45 0
-238 -240 -45 0
238 240 -45 -236 0
-238 240 45 -236 0
-241 238 0
-241 236 0
241 -238 -236 0
242 238 -236 0
242 -238 236 0
-242 238 236 0
-242 -238 -236 0
-243 50 0
-243 242 0
-243 238 -54 0
-243 -238 54 0
243 -50 238 54 -242 0
243 -50 -238 -54 -242 0
245 50 -238 0
245 -50 238 0
-245 50 238 0
-245 -50 -238 0
244 54 -242 0
244 -54 242 0
-244 54 242 0
-244 -54 -242 0
246 -244 0
-246 244 0
-247 50 0
-247 244 0
247 -50 -244 0
248 50 -244 0
248 -50 244 0
-248 50 244 0
-248 -50 -244 0
-249 250 0
-249 248 0
-249 -50 0
249 -250 50 -248 0
250 -50 248 0
-250 50 248 0
-251 248 0
250 -251 -50 0
-250 -251 50 0
250 251 50 -248 0
-250 251 -50 -248 0
-252 248 0
250 -252 50 0
-250 -252 -50 0
250 252 -50 -248 0
-250 252 50 -248 0
-253 250 0
-253 248 0
253 -250 -248 0
254 250 -248 0
254 -250 248 0
-254 250 248 0
-254 -250 -248 0
-255 59 0
-255 242 0
-255 245 -63 0
-255 -245 63 0
255 -59 245 63 -242 0
255 -59 -245 -63 -242 0
257 59 -245 0
257 -59 245 0
-257 59 245 0
-257 -59 -245 0
256 63 -242 0
256 -63 242 0
-256 63 242 0
-256 -63 -242 0
258 -256 0
-258 256 0
-259 59 0
-259 256 0
259 -59 -256 0
260 59 -256 0
260 -59 256 0
-260 59 256 0
-260 -59 -256 0
-261 262 0
-261 260 0
-261 -59 0
261 -262 59 -260 0
262 -59 260 0
-262 59 260 0
-263 260 0
262 -263 -59 0
-262 -263 59 0
262 263 59 -260 0
-262 263 -59 -260 0
-264 260 0
262 -264 59 0
-262 -264 -59 0
262 264 -59 -260 0
-262 264 59 -260 0
-265 262 0
-265 260 0
265 -262 -260 0
266 262 -260 0
266 -262 260 0
-266 262 260 0
-266 -262 -260 0
-267 68 0
-267 242 0
-267 257 -72 0
-267 -257 72 0
267 -68 257 72 -242 0
267 -68 -257 -72 -242 0
269 68 -257 0
269 -68 257 0
-269 68 257 0
-269 -68 -257 0
268 72 -242 0
268 -72 242 0
-268 72 242 0
-268 -72 -242 0
-270 68 0
-270 268 0
270 -68 -268 0
271 68 -268 0
271 -68 268 0
-271 68 268 0
-271 -68 -268 0
-272 273 0
-272 271 0
-272 -68 0
272 -273 68 -271 0
273 -68 271 0
-273 68 271 0
-274 271 0
273 -274 -68 0
-273 -274 68 0
273 274 68 -271 0
-273 274 -68 -271 0
-275 271 0
273 -275 68 0
-273 -275 -68 0
273 275 -68 -271 0
-273 275 68 -271 0
-276 273 0
-276 271 0
276 -273 -271 0
277 273 -271 0
277 -273 271 0
-277 273 271 0
-277 -273 -271 0
-278 76 0
-278 242 0
-278 269 -80 0
-278 -269 80 0
278 -76 269 80 -242 0
278 -76 -269 -80 -242 0
280 76 -269 0
280 -76 269 0
-280 76 269 0
-280 -76 -269 0
279 80 -242 0
279 -80 242 0
-279 80 242 0
-279 -80 -242 0
281 -279 0
-281 279 0
-282 76 0
-282 279 0
282 -76 -279 0
283 76 -279 0
283 -76 279 0
-283 76 279 0
-283 -76 -279 0
-284 285 0
-284 283 0
-284 -76 0
284 -285 76 -283 0
285 -76 283 0
-285 76 283 0
-286 283 0
285 -286 -76 0
-285 -286 76 0
285 286 76 -283 0
-285 286 -76 -283 0
-287 283 0
285 -287 76 0
-285 -287 -76 0
285 287 -76 -283 0
-285 287 76 -283 0
-288 285 0
-288 283 0
288 -285 -283 0
289 285 -283 0
289 -285 283 0
-289 285 283 0
-289 -285 -283 0
-290 85 0
-290 242 0
-290 280 -89 0
-290 -280 89 0
290 -85 280 89 -242 0
290 -85 -280 -89 -242 0
292 85 -280 0
292 -85 280 0
-292 85 280 0
-292 -85 -280 0
291 89 -242 0
291 -89 242 0
-291 89 242 0
-291 -89 -242 0
-293 85 0
-293 291 0
293 -85 -291 0
294 85 -291 0
294 -85 291 0
-294 85 291 0
-294 -85 -291 0
-295 296 0
-295 294 0
-295 -85 0
295 -296 85 -294 0
296 -85 294 0
-296 85 294 0
-297 294 0
296 -297 -85 0
-296 -297 85 0
296 297 85 -294 0
-296 297 -85 -294 0
-298 294 0
296 -298 85 0
-296 -298 -85 0
296 298 -85 -294 0
-296 298 85 -294 0
-299 296 0
-299 294 0
299 -296 -294 0
300 296 -294 0
300 -296 294 0
-300 296 294 0
-300 -296 -294 0
-301 93 0
-301 242 0
-301 292 -97 0
-301 -292 97 0
301 -93 292 97 -242 0
301 -93 -292 -97 -242 0
303 93 -292 0
303 -93 292 0
-303 93 292 0
-303 -93 -292 0
302 97 -242 0
302 -97 242 0
-302 97 242 0
-302 -97 -242 0
304 -302 0
-304 302 0
-305 93 0
-305 302 0
305 -93 -302 0
306 93 -302 0
306 -93 302 0
-306 93 302 0
-306 -93 -302 0
-307 308 0
-307 306 0
-307 -93 0
307 -308 93 -306 0
308 -93 306 0
-308 93 306 0
-309 306 0
308 -309 -93 0
-308 -309 93 0
308 309 93 -306 0
-308 309 -93 -306 0
-310 306 0
308 -310 93 0
-308 -310 -93 0
308 310 -93 -306 0
-308 310 93 -306 0
-311 308 0
-311 306 0
311 -308 -306 0
312 308 -306 0
312 -308 306 0
-312 308 306 0
-312 -308 -306 0
-313 102 0
-313 242 0
-313 303 -106 0
-313 -303 106 0
313 -102 303 106 -242 0
313 -102 -303 -106 -242 0
315 102 -303 0
315 -102 303 0
-315 102 303 0
-315 -102 -303 0
314 106 -242 0
314 -106 242 0
-314 106 242 0
-314 -106 -242 0
316 -314 0
-316 314 0
-317 102 0
-317 314 0
317 -102 -314 0
318 102 -314 0
318 -102 314 0
-318 102 314 0
-318 -102 -314 0
-319 320 0
-319 318 0
-319 -102 0
319 -320 102 -318 0
320 -102 318 0
-320 102 318 0
-321 318 0
320 -321 -102 0
-320 -321 102 0
320 321 102 -318 0
-320 321 -102 -318 0
-322 318 0
320 -322 102 0
-320 -322 -102 0
320 322 -102 -318 0
-320 322 102 -318 0
-323 320 0
-323 318 0
323 -320 -318 0
324 320 -318 0
324 -320 318 0
-324 320 318 0
-324 -320 -318 0
-325 111 0
-325 242 0
-325 315 -115 0
-325 -315 115 0
325 -111 315 115 -242 0
325 -111 -315 -115 -242 0
327 111 -315 0
327 -111 315 0
-327 111 315 0
-327 -111 -315 0
326 115 -242 0
326 -115 242 0
-326 115 242 0
-326 -115 -242 0
-328 111 0
-328 326 0
328 -111 -326 0
329 111 -326 0
329 -111 326 0
-329 111 326 0
-329 -111 -326 0
-330 331 0
-330 329 0
-330 -111 0
330 -331 111 -329 0
331 -111 329 0
-331 111 329 0
-332 329 0
331 -332 -111 0
-331 -332 111 0
331 332 111 -329 0
-331 332 -111 -329 0
-333 329 0
331 -333 111 0
-331 -333 -111 0
331 333 -111 -329 0
-331 333 111 -329 0
-334 331 0
-334 329 0
334 -331 -329 0
335 331 -329 0
335 -331 329 0
-335 331 329 0
-335 -331 -329 0
-336 119 0
-336 242 0
-336 327 -123 0
-336 -327 123 0
336 -119 327 123 -242 0
336 -119 -327 -123 -242 0
338 119 -327 0
338 -119 327 0
-338 119 327 0
-338 -119 -327 0
337 123 -242 0
337 -123 242 0
-337 123 242 0
-337 -123 -242 0
339 -337 0
-339 337 0
-340 119 0
-340 337 0
340 -119 -337 0
341 119 -337 0
341 -119 337 0
-341 119 337 0
-341 -119 -337 0
-342 343 0
-342 341 0
-342 -119 0
342 -343 119 -341 0
343 -119 341 0
-343 119 341 0
-344 341 0
343 -344 -119 0
-343 -344 119 0
343 344 119 -341 0
-343 344 -119 -341 0
-345 341 0
343 -345 119 0
-343 -345 -119 0
343 345 -119 -341 0
-343 345 119 -341 0
-346 343 0
-346 341 0
346 -343 -341 0
347 343 -341 0
347 -343 341 0
-347 343 341 0
-347 -343 -341 0
-348 128 0
-348 242 0
-348 338 -132 0
-348 -338 132 0
348 -128 338 132 -242 0
348 -128 -338 -132 -242 0
350 128 -338 0
350 -128 338 0
-350 128 338 0
-350 -128 -338 0
349 132 -242 0
349 -132 242 0
-349 132 242 0
-349 -132 -242 0
351 -349 0
-351 349 0
-352 128 0
-352 349 0
352 -128 -349 0
353 128 -349 0
353 -128 349 0
-353 128 349 0
-353 -128 -349 0
-354 355 0
-354 353 0
-354 -128 0
354 -355 128 -353 0
355 -128 353 0
-355 128 353 0
-356 353 0
355 -356 -128 0
-355 -356 128 0
355 356 128 -353 0
-355 356 -128 -353 0
-357 353 0
355 -357 128 0
-355 -357 -128 0
355 357 -128 -353 0
-355 357 128 -353 0
-358 355 0
-358 353 0
358 -355 -353 0
359 355 -353 0
359 -355 353 0
-359 355 353 0
-359 -355 -353 0
-360 137 0
-360 242 0
-360 350 -141 0
-360 -350 141 0
360 -137 350 141 -242 0
360 -137 -350 -141 -242 0
362 137 -350 0
362 -137 350 0
-362 137 350 0
-362 -137 -350 0
361 141 -242 0
361 -141 242 0
-361 141 242 0
-361 -141 -242 0
-363 137 0
-363 361 0
363 -137 -361 0
364 137 -361 0
364 -137 361 0
-364 137 361 0
-364 -137 -361 0
-365 366 0
-365 364 0
-365 -137 0
365 -366 137 -364 0
366 -137 364 0
-366 137 364 0
-367 364 0
366 -367 -137 0
-366 -367 137 0
366 367 137 -364 0
-366 367 -137 -364 0
-368 364 0
366 -368 137 0
-366 -368 -137 0
366 368 -137 -364 0
-366 368 137 -364 0
-369 366 0
-369 364 0
369 -366 -364 0
370 366 -364 0
370 -366 364 0
-370 366 364 0
-370 -366 -364 0
-371 145 0
-371 242 0
-371 362 -149 0
-371 -362 149 0
371 -145 362 149 -242 0
371 -145 -362 -149 -242 0
373 145 -362 0
373 -145 362 0
-373 145 362 0
-373 -145 -362 0
372 149 -242 0
372 -149 242 0
-372 149 242 0
-372 -149 -242 0
374 -372 0
-374 372 0
-375 145 0
-375 372 0
375 -145 -372 0
376 145 -372 0
376 -145 372 0
-376 145 372 0
-376 -145 -372 0
-377 378 0
-377 376 0
-377 -145 0
377 -378 145 -376 0
378 -145 376 0
-378 145 376 0
-379 376 0
378 -379 -145 0
-378 -379 145 0
378 379 145 -376 0
-378 379 -145 -376 0
-380 376 0
378 -380 145 0
-378 -380 -145 0
378 380 -145 -376 0
-378 380 145 -376 0
-381 378 0
-381 376 0
381 -378 -376 0
382 378 -376 0
382 -378 376 0
-382 378 376 0
-382 -378 -376 0
-383 154 0
-383 242 0
-383 373 -158 0
-383 -373 158 0
383 -154 373 158 -242 0
383 -154 -373 -158 -242 0
385 154 -373 0
385 -154 373 0
-385 154 373 0
-385 -154 -373 0
384 158 -242 0
384 -158 242 0
-384 158 242 0
-384 -158 -242 0
386 -384 0
-386 384 0
-387 154 0
-387 384 0
387 -154 -384 0
388 154 -384 0
388 -154 384 0
-388 154 384 0
-388 -154 -384 0
-389 390 0
-389 388 0
-389 -154 0
389 -390 154 -388 0
390 -154 388 0
-390 154 388 0
-391 388 0
390 -391 -154 0
-390 -391 154 0
390 391 154 -388 0
-390 391 -154 -388 0
-392 388 0
390 -392 154 0
-390 -392 -154 0
390 392 -154 -388 0
-390 392 154 -388 0
-393 390 0
-393 388 0
393 -390 -388 0
394 390 -388 0
394 -390 388 0
-394 390 388 0
-394 -390 -388 0
-395 163 0
-395 242 0
-395 385 -167 0
-395 -385 167 0
395 -163 385 167 -242 0
395 -163 -385 -167 -242 0
397 163 -385 0
397 -163 385 0
-397 163 385 0
-397 -163 -385 0
396 167 -242 0
396 -167 242 0
-396 167 242 0
-396 -167 -242 0
-398 163 0
-398 396 0
398 -163 -396 0
399 163 -396 0
399 -163 396 0
-399 163 396 0
-399 -163 -396 0
-400 401 0
-400 399 0
-400 -163 0
400 -401 163 -399 0
401 -163 399 0
-401 163 399 0
-402 399 0
401 -402 -163 0
-401 -402 163 0
401 402 163 -399 0
-401 402 -163 -399 0
-403 399 0
401 -403 163 0
-401 -403 -163 0
401 403 -163 -399 0
-401 403 163 -399 0
-404 401 0
-404 399 0
404 -401 -399 0
405 401 -399 0
405 -401 399 0
-405 401 399 0
-405 -401 -399 0
-406 171 0
-406 242 0
-406 397 -175 0
-406 -397 175 0
406 -171 397 175 -242 0
406 -171 -397 -175 -242 0
408 171 -397 0
408 -171 397 0
-408 171 397 0
-408 -171 -397 0
407 175 -242 0
407 -175 242 0
-407 175 242 0
-407 -175 -242 0
-409 171 0
-409 407 0
409 -171 -407 0
410 171 -407 0
410 -171 407 0
-410 171 407 0
-410 -171 -407 0
-411 412 0
-411 410 0
-411 -171 0
411 -412 171 -410 0
412 -171 410 0
-412 171 410 0
-413 410 0
412 -413 -171 0
-412 -413 171 0
412 413 171 -410 0
-412 413 -171 -410 0
-414 410 0
412 -414 171 0
-412 -414 -171 0
412 414 -171 -410 0
-412 414 171 -410 0
-415 412 0
-415 410 0
415 -412 -410 0
416 412 -410 0
416 -412 410 0
-416 412 410 0
-416 -412 -410 0
-417 179 0
-417 242 0
-417 408 -183 0
-417 -408 183 0
417 -179 408 183 -242 0
417 -179 -408 -183 -242 0
419 179 -408 0
419 -179 408 0
-419 179 408 0
-419 -179 -408 0
418 183 -242 0
418 -183 242 0
-418 183 242 0
-418 -183 -242 0
420 -418 0
-420 418 0
-421 179 0
-421 418 0
421 -179 -418 0
422 179 -418 0
422 -179 418 0
-422 179 418 0
-422 -179 -418 0
-423 424 0
-423 422 0
-423 -179 0
423 -424 179 -422 0
424 -179 422 0
-424 179 422 0
-425 422 0
424 -425 -179 0
-424 -425 179 0
424 425 179 -422 0
-424 425 -179 -422 0
-426 422 0
424 -426 179 0
-424 -426 -179 0
424 426 -179 -422 0
-424 426 179 -422 0
-427 424 0
-427 422 0
427 -424 -422 0
428 424 -422 0
428 -424 422 0
-428 424 422 0
-428 -424 -422 0
-429 188 0
-429 242 0
-429 419 -192 0
-429 -419 192 0
429 -188 419 192 -242 0
429 -188 -419 -192 -242 0
431 188 -419 0
431 -188 419 0
-431 188 419 0
-431 -188 -419 0
430 192 -242 0
430 -192 242 0
-430 192 242 0
-430 -192 -242 0
-432 188 0
-432 430 0
432 -188 -430 0
433 188 -430 0
433 -188 430 0
-433 188 430 0
-433 -188 -430 0
-434 435 0
-434 433 0
-434 -188 0
434 -435 188 -433 0
435 -188 433 0
-435 188 433 0
-436 433 0
435 -436 -188 0
-435 -436 188 0
435 436 188 -433 0
-435 436 -188 -433 0
-437 433 0
435 -437 188 0
-435 -437 -188 0
435 437 -188 -433 0
-435 437 188 -433 0
-438 435 0
-438 433 0
438 -435 -433 0
439 435 -433 0
439 -435 433 0
-439 435 433 0
-439 -435 -433 0
-440 196 0
-440 242 0
-440 431 -200 0
-440 -431 200 0
440 -196 431 200 -242 0
440 -196 -431 -200 -242 0
442 196 -431 0
442 -196 431 0
-442 196 431 0
-442 -196 -431 0
441 200 -242 0
441 -200 242 0
-441 200 242 0
-441 -200 -242 0
-443 196 0
-443 441 0
443 -196 -441 0
444 196 -441 0
444 -196 441 0
-444 196 441 0
-444 -196 -441 0
-445 446 0
-445 444 0
-445 -196 0
445 -446 196 -444 0
446 -196 444 0
-446 196 444 0
-447 444 0
446 -447 -196 0
-446 -447 196 0
446 447 196 -444 0
-446 447 -196 -444 0
-448 444 0
446 -448 196 0
-446 -448 -196 0
446 448 -196 -444 0
-446 448 196 -444 0
-449 446 0
-449 444 0
449 -446 -444 0
450 446 -444 0
450 -446 444 0
-450 446 444 0
-450 -446 -444 0
-451 204 0
-451 242 0
-451 442 -208 0
-451 -442 208 0
451 -204 442 208 -242 0
451 -204 -442 -208 -242 0
453 204 -442 0
453 -204 442 0
-453 204 442 0
-453 -204 -442 0
452 208 -242 0
452 -208 242 0
-452 208 242 0
-452 -208 -242 0
-454 204 0
-454 452 0
454 -204 -452 0
455 204 -452 0
455 -204 452 0
-455 204 452 0
-455 -204 -452 0
-456 457 0
-456 455 0
-456 -204 0
456 -457 204 -455 0
457 -204 455 0
-457 204 455 0
-458 455 0
457 -458 -204 0
-457 -458 204 0
457 458 204 -455 0
-457 458 -204 -455 0
-459 455 0
457 -459 204 0
-457 -459 -204 0
457 459 -204 -455 0
-457 459 204 -455 0
-460 457 0
-460 455 0
460 -457 -455 0
461 457 -455 0
461 -457 455 0
-461 457 455 0
-461 -457 -455 0
-462 212 0
-462 242 0
-462 453 -216 0
-462 -453 216 0
462 -212 453 216 -242 0
462 -212 -453 -216 -242 0
464 212 -453 0
464 -212 453 0
-464 212 453 0
-464 -212 -453 0
463 216 -242 0
463 -216 242 0
-463 216 242 0
-463 -216 -242 0
-465 212 0
-465 463 0
465 -212 -463 0
466 212 -463 0
466 -212 463 0
-466 212 463 0
-466 -212 -463 0
-467 468 0
-467 466 0
-467 -212 0
467 -468 212 -466 0
468 -212 466 0
-468 212 466 0
-469 466 0
468 -469 -212 0
-468 -469 212 0
468 469 212 -466 0
-468 469 -212 -466 0
-470 466 0
468 -470 212 0
-468 -470 -212 0
468 470 -212 -466 0
-468 470 212 -466 0
-471 468 0
-471 466 0
471 -468 -466 0
472 468 -466 0
472 -468 466 0
-472 468 466 0
-472 -468 -466 0
-473 220 0
-473 242 0
-473 464 -224 0
-473 -464 224 0
473 -220 464 224 -242 0
473 -220 -464 -224 -242 0
475 220 -464 0
475 -220 464 0
-475 220 464 0
-475 -220 -464 0
474 224 -242 0
474 -224 242 0
-474 224 242 0
-474 -224 -242 0
-476 220 0
-476 474 0
476 -220 -474 0
477 220 -474 0
477 -220 474 0
-477 220 474 0
-477 -220 -474 0
-478 479 0
-478 477 0
-478 -220 0
478 -479 220 -477 0
479 -220 477 0
-479 220 477 0
-480 477 0
479 -480 -220 0
-479 -480 220 0
479 480 220 -477 0
-479 480 -220 -477 0
-481 477 0
479 -481 220 0
-479 -481 -220 0
479 481 -220 -477 0
-479 481 220 -477 0
-482 479 0
-482 477 0
482 -479 -477 0
483 479 -477 0
483 -479 477 0
-483 479 477 0
-483 -479 -477 0
-484 228 0
-484 242 0
-484 475 -232 0
-484 -475 232 0
484 -228 475 232 -242 0
484 -228 -475 -232 -242 0
486 228 -475 0
486 -228 475 0
-486 228 475 0
-486 -228 -475 0
485 232 -242 0
485 -232 242 0
-485 232 242 0
-485 -232 -242 0
487 -485 0
-487 485 0
-488 228 0
-488 485 0
488 -228 -485 0
489 228 -485 0
489 -228 485 0
-489 228 485 0
-489 -228 -485 0
-490 491 0
-490 489 0
-490 -228 0
490 -491 228 -489 0
491 -228 489 0
-491 228 489 0
-492 489 0
491 -492 -228 0
-491 -492 228 0
491 492 228 -489 0
-491 492 -228 -489 0
-493 489 0
491 -493 228 0
-491 -493 -228 0
491 493 -228 -489 0
-491 493 228 -489 0
-494 491 0
-494 489 0
494 -491 -489 0
495 491 -489 0
495 -491 489 0
-495 491 489 0
-495 -491 -489 0
-250 0
-262 0
-266 0
-273 0
-277 0
-285 0
-289 0
-296 0
-300 0
-308 0
-312 0
-320 0
-324 0
-331 0
-335 0
-343 0
-347 0
-355 0
-359 0
-366 0
-370 0
-378 0
-382 0
-390 0
-394 0
-401 0
-405 0
-412 0
-416 0
-424 0
-428 0
-435 0
-439 0
-446 0
-450 0
-457 0
-461 0
-468 0
-472 0
-479 0
-483 0
-491 0
-495 0
-486 0
-242 0
